(set-info :origin "driver benchmark extracted from Microsoft SDV")
(set-logic HORN)
(declare-fun Proc27 (Int Int Int Bool Int) Bool)
(declare-fun Proc34 (Int Int Int Bool Int) Bool)
(declare-fun Proc24 (Int Int Int Bool Int) Bool)
(declare-fun Proc39 (Int Int Int Bool Int Int Int Int) Bool)
(declare-fun Proc33 (Int Int Int Bool Int) Bool)
(declare-fun Proc1 (Int Int Int Bool Int) Bool)
(declare-fun Proc41 (Int Int Int Bool) Bool)
(declare-fun Proc20 (Int Int Int Bool Int Int) Bool)
(declare-fun Proc4 (Int Int Int Bool Int) Bool)
(declare-fun Proc40 (Int Int Int Bool Int Int Int Int Int) Bool)
(declare-fun Proc5 (Int Int Int Bool Int Int Int) Bool)
(declare-fun Proc8 (Int Int Int Bool Int Int) Bool)
(declare-fun Proc16 (Int Int Int Bool) Bool)
(declare-fun Proc23 (Int Int Int Bool Int Int Int Bool Int) Bool)
(declare-fun Proc14 (Int Int Int Bool) Bool)
(declare-fun Proc21 (Int Int Int Bool Int) Bool)
(declare-fun Proc22 (Int Int Int Bool Int Int) Bool)
(declare-fun Proc30 (Int Int Int Bool Int) Bool)
(declare-fun Proc11 (Int Int Int Bool Int Int Int) Bool)
(declare-fun Proc32 (Int Int Int Bool Int) Bool)
(declare-fun Proc25 (Int Int Int Bool Int) Bool)
(declare-fun Proc29 (Int Int Int Bool Int) Bool)
(declare-fun Proc9 (Int Int Int Bool Int) Bool)
(declare-fun Proc17 (Int Int Int Bool) Bool)
(declare-fun Proc0 (Int Int Int Bool) Bool)
(declare-fun Proc36 (Int Int Int Bool Int) Bool)
(declare-fun Proc10 (Int Int Int Bool Int Int) Bool)
(declare-fun Proc13 (Int Int Int Bool Int Int Int) Bool)
(declare-fun Proc3 (Int Int Int Bool Int Int) Bool)
(declare-fun Proc31 (Int Int Int Bool Int) Bool)
(declare-fun Proc37 (Int Int Int Bool Int) Bool)
(declare-fun Proc38 (Int Int Int Bool) Bool)
(declare-fun Proc35 (Int Int Int Bool Int) Bool)
(declare-fun Proc12 (Int Int Int Bool Int) Bool)
(declare-fun Proc26 (Int Int Int Bool Int) Bool)
(declare-fun Proc18 (Int Int Int Bool) Bool)
(declare-fun Proc19 (Int Int Int Bool) Bool)
(declare-fun Proc28 (Int Int Int Bool Int) Bool)
(declare-fun Proc15 (Int Int Int Bool) Bool)
(declare-fun Proc2 (Int Int Int Bool Int Int) Bool)
(declare-fun Proc6 (Int Int Int Bool Int Int) Bool)
(declare-fun Proc42 (Int Int Int Bool Int Bool Int Int Int) Bool)
(declare-fun Proc7 (Int Int Int Bool Int Int Int Int) Bool)
(assert (forall ((A Int)
         (B Int)
         (C Int)
         (D Int)
         (E Int)
         (F Int)
         (G Int)
         (H Int)
         (I Int)
         (J Int)
         (K Int)
         (L Int)
         (M Int)
         (N Int)
         (O Bool))
  (let ((a!1 (not (and (= F (- 1073741808)) (= E F))))
        (a!2 (or (not (= E 0))
                 (= H 0)
                 (not (Proc3 N M L O H 0))
                 (not (Proc4 N M L O I))
                 (not (= D E))
                 (not (= C D))))
        (a!5 (or (not (= B (- 1073741810)))
                 (= H 0)
                 (not (Proc3 N M L O H 0))
                 (not (= D B))
                 (not (= C D))))
        (a!6 (or (not (= A (- 1073741808)))
                 (= H 0)
                 (not (Proc3 N M L O H 0))
                 (not (= D A))
                 (not (= C D)))))
  (let ((a!3 (and (or a!1
                      (= H 0)
                      (not (Proc3 N M L O H 0))
                      (not (Proc4 N M L O I))
                      (not (= D E))
                      (not (= C D)))
                  a!2)))
  (let ((a!4 (or (not (Proc2 N M L O H G)) (= G 0) (and (or (= G 0) a!3) a!2))))
  (let ((a!7 (and (or (= K 0) (not (Proc1 N M L O I)) (= I 0) (and a!4 a!5))
                  a!6)))
  (let ((a!8 (not (or (not O) (not (Proc0 N M L O)) (= K 0) (= J 0) a!7))))
    (=> a!8 (Proc5 N M L O K H C)))))))))
(assert (forall ((A Int)
         (B Int)
         (C Int)
         (D Int)
         (E Int)
         (F Int)
         (G Int)
         (H Int)
         (I Int)
         (J Int)
         (O Bool))
  (let ((a!1 (not (and (not (= J 0)) (= I (+ 176 J)))))
        (a!2 (not (and (not (= J 0)) (= D (+ 180 J)) (Proc7 H G F O D 0 0 C))))
        (a!4 (not (and (not (= J 0)) (= B (+ 292 J)) (Proc7 H G F O B 0 0 A)))))
  (let ((a!3 (and (= E 0) (or (not (= E 0)) a!2))))
  (let ((a!5 (and (or (= E 1) a!3) (or (not (= E 1)) a!4 a!3))))
  (let ((a!6 (not (or (not O) a!1 (not (Proc6 H G F O I E)) a!5))))
    (=> a!6 (Proc4 H G F O J))))))))
(assert (forall ((A Int) (B Int) (C Int) (D Int) (E Int) (F Int) (G Int) (O Bool))
  (let ((a!1 (not (and (not (= G 0)) (= F (+ 176 G)))))
        (a!2 (not (and (not (= G 0)) (= A (+ 292 G)) (Proc9 E D C O A)))))
  (let ((a!3 (and (= B 2) (or (not (= B 2)) a!2))))
  (let ((a!4 (not (or (not O) a!1 (not (Proc8 E D C O F B)) a!3))))
    (=> a!4 (Proc1 E D C O G)))))))
(assert (forall ((A Int) (B Int) (C Int) (D Int) (O Bool)) (=> O (Proc9 D C B O A))))
(assert (forall ((A Int)
         (B Int)
         (C Int)
         (D Int)
         (E Int)
         (F Int)
         (G Int)
         (H Int)
         (O Bool))
  (let ((a!1 (not (or (not O) (not (= H G))))))
    (=> a!1 (Proc7 F E D O C B A H)))))
(assert (forall ((A Int)
         (B Int)
         (C Int)
         (D Int)
         (E Int)
         (F Int)
         (G Int)
         (H Int)
         (I Int)
         (O Bool))
  (let ((a!1 (and (not (<= G (+ 1 I))) (not (<= G H)))))
  (let ((a!2 (or (not O)
                 (not (= I H))
                 (not a!1)
                 (not (Proc10 G F E O I D))
                 (not (and (= C G) (= B D))))))
    (=> (not a!2) (Proc11 H F E O A C B))))))
(assert (forall ((A Int) (B Int) (C Int) (D Int) (E Int) (O Bool))
  (let ((a!1 (not (or (not O) (not (= E 1))))))
    (=> a!1 (Proc10 D C B O A E)))))
(assert (forall ((A Int) (B Int) (C Int) (D Int) (O Bool))
  (=> false (Proc12 D C B O A))))
(assert (forall ((A Int)
         (B Int)
         (C Int)
         (D Int)
         (E Int)
         (F Int)
         (G Int)
         (H Int)
         (I Int)
         (J Int)
         (K Int)
         (L Int)
         (O Bool))
  (let ((a!1 (or (not (= G 1))
                 (not (and (= F H) (= E G)))
                 (not (and (= D F) (= C E)))))
        (a!2 (or (= G 1)
                 (not (and (= F H) (= E G)))
                 (not (and (= D F) (= C E)))))
        (a!3 (and (not (<= A (+ 1 B))) (not (<= A K)))))
  (let ((a!4 (or (not (= L 0))
                 (not (= B K))
                 (not a!3)
                 (not (Proc12 A L J O B))
                 (not (and (= F A) (= E J)))
                 (not (and (= D F) (= C E))))))
  (let ((a!5 (and (or (= L 0) (not (Proc11 K L J O I H G)) (and a!1 a!2)) a!4)))
    (=> (not (or (not O) a!5)) (Proc13 K L J O I D C)))))))
(assert (forall ((A Int) (B Int) (C Int) (O Bool)) (=> O (Proc14 C B A O))))
(assert (forall ((A Int) (B Int) (C Int) (O Bool)) (=> O (Proc15 C B A O))))
(assert (forall ((A Int) (B Int) (C Int) (O Bool)) (=> O (Proc16 C B A O))))
(assert (forall ((A Int) (B Int) (C Int) (O Bool)) (=> O (Proc17 C B A O))))
(assert (forall ((A Int) (B Int) (C Int) (O Bool)) (=> O (Proc18 C B A O))))
(assert (forall ((A Int) (B Int) (C Int) (O Bool)) (=> O (Proc19 C B A O))))
(assert (forall ((A Int) (B Int) (C Int) (D Int) (E Int) (O Bool))
  (let ((a!1 (or (not O) (not (and (= E 0) (= D 0))))))
    (=> (not a!1) (Proc20 C B A O E D)))))
(assert (forall ((A Int)
         (B Int)
         (C Int)
         (D Int)
         (E Int)
         (F Int)
         (G Int)
         (H Int)
         (I Int)
         (J Int)
         (K Int)
         (L Int)
         (M Int)
         (N Int)
         (O Bool)
         (P Bool)
         (Q Bool)
         (R Int)
         (S Bool))
  (let ((a!1 (not (and (not (<= R 0)) (Proc21 R N M S L))))
        (a!2 (not (and (= E G) (= D K) (= C H) (= P Q) (= B I)))))
  (let ((a!3 (or (= H 0) (not (and (= G F) (not Q))) a!2))
        (a!4 (or (not (and (= H 0) (= O S))) (not (and (= G A) (= Q O))) a!2)))
  (let ((a!5 (and (or (= H 1) (and a!3 a!4)) (or (not (= H 1)) (and a!3 a!4)))))
  (let ((a!6 (not (or (not S)
                      a!1
                      (not (Proc20 L N M S K J))
                      (not (Proc19 L K J S))
                      (not (Proc18 L K J S))
                      (not (Proc17 L K J S))
                      (not (Proc16 L K J S))
                      (not (Proc15 L K J S))
                      (not (Proc14 L K J S))
                      (not (Proc22 L K J S I H))
                      a!5))))
    (=> a!6 (Proc23 R N M S E D C P B))))))))
(assert (forall ((A Int) (B Int) (C Int) (D Int) (O Bool))
  (let ((a!1 (not (or (not O) (not (= D 1))))))
    (=> a!1 (Proc24 C B A O D)))))
(assert (forall ((A Int) (B Int) (C Int) (D Int) (O Bool))
  (let ((a!1 (not (or (not O) (not (= D 0))))))
    (=> a!1 (Proc25 C B A O D)))))
(assert (forall ((A Int) (B Int) (C Int) (D Int) (O Bool))
  (let ((a!1 (not (or (not O) (not (= D 1))))))
    (=> a!1 (Proc26 C B A O D)))))
(assert (forall ((A Int) (B Int) (C Int) (D Int) (O Bool))
  (let ((a!1 (not (or (not O) (not (= D 0))))))
    (=> a!1 (Proc27 C B A O D)))))
(assert (forall ((A Int) (B Int) (C Int) (D Int) (O Bool))
  (let ((a!1 (not (or (not O) (not (= D 1))))))
    (=> a!1 (Proc28 C B A O D)))))
(assert (forall ((A Int) (B Int) (C Int) (D Int) (O Bool))
  (let ((a!1 (not (or (not O) (not (= D 0))))))
    (=> a!1 (Proc29 C B A O D)))))
(assert (forall ((A Int) (B Int) (C Int) (D Int) (O Bool))
  (let ((a!1 (not (or (not O) (not (= D 1))))))
    (=> a!1 (Proc30 C B A O D)))))
(assert (forall ((A Int) (B Int) (C Int) (D Int) (O Bool))
  (let ((a!1 (not (or (not O) (not (= D 1))))))
    (=> a!1 (Proc31 C B A O D)))))
(assert (forall ((A Int) (B Int) (C Int) (D Int) (O Bool))
  (let ((a!1 (not (or (not O) (not (= D 0))))))
    (=> a!1 (Proc32 C B A O D)))))
(assert (forall ((A Int) (B Int) (C Int) (D Int) (O Bool))
  (let ((a!1 (not (or (not O) (not (= D 0))))))
    (=> a!1 (Proc33 C B A O D)))))
(assert (forall ((A Int) (B Int) (C Int) (D Int) (O Bool))
  (let ((a!1 (not (or (not O) (not (= D 0))))))
    (=> a!1 (Proc34 C B A O D)))))
(assert (forall ((A Int) (B Int) (C Int) (D Int) (E Int) (O Bool))
  (let ((a!1 (or (not O) (not (= E (- 1073741823))) (not (= D E)))))
    (=> (not a!1) (Proc35 C B A O D)))))
(assert (forall ((A Int) (B Int) (C Int) (D Int) (E Int) (F Int) (O Bool))
  (let ((a!1 (not (or (not O) (= F 0) (not (= E D))))))
    (=> a!1 (Proc6 C B A O F E)))))
(assert (forall ((A Int) (B Int) (C Int) (D Int) (E Int) (F Int) (O Bool))
  (let ((a!1 (not (or (not O) (= F 0) (not (= E D))))))
    (=> a!1 (Proc8 C B A O F E)))))
(assert (forall ((A Int) (B Int) (C Int) (D Int) (E Int) (O Bool))
  (=> O (Proc3 E D C O B A))))
(assert (forall ((A Int) (B Int) (C Int) (D Int) (O Bool))
  (let ((a!1 (not (or (not O) (not (= D 1))))))
    (=> a!1 (Proc36 C B A O D)))))
(assert (forall ((A Int) (B Int) (C Int) (D Int) (E Int) (F Int) (O Bool))
  (let ((a!1 (not (or (not O) (= F 0) (not (= E D))))))
    (=> a!1 (Proc2 C B A O F E)))))
(assert (forall ((A Int)
         (B Int)
         (C Int)
         (D Int)
         (E Int)
         (F Int)
         (G Int)
         (H Int)
         (I Int)
         (J Int)
         (K Int)
         (L Int)
         (M Int)
         (N Int)
         (O Bool)
         (R Int)
         (T Int)
         (U Int)
         (V Int)
         (W Int))
  (let ((a!1 (not (Proc39 V U T O L W K J)))
        (a!2 (not (and (= G I) (= F K) (= E J)))))
  (let ((a!3 (or (not (and (= J 1) (= I H))) a!2)))
  (let ((a!4 (and a!3 (or (= J 1) (= W 0) (not (= I L)) a!2))))
  (let ((a!5 (and (or (= R 0) (not (Proc5 V U T O N W M)) (not (= L M)) a!1 a!4)
                  (or (= R 0) (not (Proc35 V U T O D)) (not (= L D)) a!1 a!4)
                  (or (= R 0) (not (Proc35 V U T O C)) (not (= L C)) a!1 a!4)
                  (or (not (Proc35 V U T O B)) (not (= L B)) a!1 a!4)
                  (or (not (Proc35 V U T O A)) (not (= L A)) a!1 a!4))))
  (let ((a!6 (not (or (not O)
                      (= W 0)
                      (not (Proc37 V U T O W))
                      (= R 0)
                      (not (Proc38 V U T O))
                      a!5))))
    (=> a!6 (Proc40 V U T O N W G F E)))))))))
(assert (forall ((A Int) (B Int) (C Int) (D Int) (O Bool))
  (=> (not (or (not O) (= D 0))) (Proc37 C B A O D))))
(assert (forall ((A Int) (B Int) (C Int) (O Bool)) (=> O (Proc0 C B A O))))
(assert (forall ((A Int)
         (B Int)
         (C Int)
         (D Int)
         (E Int)
         (F Int)
         (G Int)
         (H Int)
         (I Int)
         (J Int)
         (K Int)
         (L Int)
         (M Int)
         (N Int)
         (O Bool)
         (R Int)
         (T Int)
         (U Int)
         (V Int)
         (W Int)
         (X Int)
         (Y Int)
         (Z Int)
         (A1 Int)
         (B1 Int))
  (let ((a!1 (or (not (and (= I B1) (= H Z))) (not (and (= G I) (= F H)))))
        (a!2 (or (not (= A 1))
                 (not (and (= I B) (= H A)))
                 (not (and (= G I) (= F H)))))
        (a!3 (or (= A 1)
                 (not (and (= I B) (= H A)))
                 (not (and (= G I) (= F H)))))
        (a!4 (or (not (= Y 0))
                 (not (and (= I B1) (= H Z)))
                 (not (and (= G I) (= F H))))))
  (let ((a!5 (and a!1
                  (or (= Y 0)
                      (not (Proc41 B1 A1 Z O))
                      (not (Proc40 B1 A1 Z O E D C B A))
                      (and a!2 a!3))
                  a!4)))
  (let ((a!6 (not (or (not O)
                      (not (Proc26 B1 A1 Z O Y))
                      (not (Proc33 B1 A1 Z O X))
                      (not (Proc27 B1 A1 Z O W))
                      (not (Proc32 B1 A1 Z O V))
                      (not (Proc25 B1 A1 Z O U))
                      (not (Proc29 B1 A1 Z O T))
                      (not (Proc36 B1 A1 Z O R))
                      (not (Proc34 B1 A1 Z O N))
                      (not (Proc24 B1 A1 Z O M))
                      (not (Proc30 B1 A1 Z O L))
                      (not (Proc31 B1 A1 Z O K))
                      (not (Proc28 B1 A1 Z O J))
                      a!5))))
    (=> a!6 (Proc22 B1 A1 Z O G F)))))))
(assert (forall ((A Int) (B Int) (C Int) (O Bool)) (=> O (Proc38 C B A O))))
(assert (forall ((A Int)
         (B Int)
         (C Int)
         (D Int)
         (E Int)
         (F Int)
         (G Int)
         (H Int)
         (I Int)
         (J Int)
         (K Int)
         (O Bool))
  (let ((a!1 (and (not (<= I (+ 1 K))) (not (<= I J))))
        (a!2 (or (not (= E 1)) (not (and (= D F) (= C E)))))
        (a!3 (or (= E 1) (not (and (= D F) (= C E))))))
  (let ((a!4 (not (or (not O)
                      (not (= K J))
                      (not a!1)
                      (not (Proc13 I H G O K F E))
                      (and a!2 a!3)))))
    (=> a!4 (Proc39 J H G O B A D C))))))
(assert (forall ((A Int) (B Int) (C Int) (O Bool)) (=> O (Proc41 C B A O))))
(assert (forall ((A Int)
         (B Int)
         (C Int)
         (D Int)
         (E Int)
         (F Int)
         (G Int)
         (H Int)
         (I Int)
         (J Int)
         (K Int)
         (L Int)
         (M Int)
         (N Int)
         (O Bool)
         (R Int)
         (T Int)
         (U Int)
         (V Int)
         (W Int)
         (X Int)
         (Y Int)
         (Z Int)
         (A1 Int)
         (B1 Int)
         (C1 Int)
         (D1 Int)
         (E1 Int)
         (F1 Int)
         (G1 Int)
         (H1 Int)
         (I1 Int)
         (J1 Int)
         (K1 Int)
         (L1 Int)
         (M1 Int)
         (N1 Int)
         (O1 Int)
         (P1 Int)
         (Q1 Int)
         (R1 Int)
         (S1 Int)
         (T1 Int)
         (U1 Int)
         (V1 Int)
         (W1 Int)
         (X1 Int)
         (Y1 Int)
         (Z1 Int)
         (A2 Int)
         (B2 Int)
         (C2 Int)
         (D2 Int)
         (E2 Int)
         (F2 Int)
         (G2 Int)
         (H2 Int)
         (I2 Int)
         (J2 Int)
         (K2 Int)
         (L2 Int)
         (M2 Int)
         (N2 Int)
         (O2 Int)
         (P2 Int)
         (Q2 Int)
         (R2 Int))
  (let ((a!1 (and (not (<= P2 (+ 16 R2)))
                  (not (<= P2 Q2))
                  (= O2 P2)
                  (not (<= N2 (+ 16 O2)))))
        (a!2 (and (not (<= N2 P2))
                  (= M2 N2)
                  (not (<= L2 (+ 16 M2)))
                  (not (<= L2 N2))
                  (= K2 L2)
                  (not (<= J2 (+ 16 K2)))
                  (not (<= J2 L2))
                  (= I2 J2)))
        (a!3 (and (not (<= H2 (+ 16 I2)))
                  (not (<= H2 J2))
                  (= G2 H2)
                  (not (<= F2 (+ 16 G2)))
                  (not (<= F2 H2))
                  (= E2 F2)
                  (not (<= D2 (+ 16 E2)))
                  (not (<= D2 F2))
                  (= C2 D2)
                  (not (<= B2 (+ 16 C2)))
                  (not (<= B2 D2))
                  (= A2 B2)
                  (not (<= Z1 (+ 4 A2)))
                  (not (<= Z1 B2))
                  (= Y1 Z1)
                  (not (<= X1 (+ 332 Y1)))))
        (a!4 (and (not (<= X1 Z1))
                  (= W1 X1)
                  (not (<= V1 (+ 4 W1)))
                  (not (<= V1 X1))
                  (= U1 V1)
                  (not (<= T1 (+ 536 U1)))
                  (not (<= T1 V1))
                  (= S1 T1)
                  (not (<= R1 (+ 240 S1)))
                  (not (<= R1 T1))
                  (= Q1 R1)
                  (not (<= P1 (+ 240 Q1)))
                  (not (<= P1 R1))
                  (= O1 P1)
                  (not (<= N1 (+ 240 O1)))
                  (not (<= N1 P1))
                  (= M1 N1)
                  (not (<= L1 (+ 4 M1)))
                  (not (<= L1 N1))
                  (= K1 L1)
                  (not (<= J1 (+ 536 K1)))
                  (not (<= J1 L1))
                  (= I1 J1)
                  (not (<= H1 (+ 332 I1)))
                  (not (<= H1 J1))
                  (= G1 H1)
                  (not (<= F1 (+ 240 G1)))
                  (not (<= F1 H1))
                  (= E1 F1)
                  (not (<= D1 (+ 240 E1)))
                  (not (<= D1 F1))
                  (= C1 D1)
                  (not (<= B1 (+ 332 C1)))
                  (not (<= B1 D1))
                  (= A1 B1)
                  (not (<= Z (+ 4 A1)))
                  (not (<= Z B1))
                  (= Y Z)
                  (not (<= X (+ 240 Y)))
                  (not (<= X Z))
                  (= W X)
                  (not (<= V (+ 240 W)))
                  (not (<= V X))
                  (= U V)
                  (not (<= T (+ 240 U)))
                  (not (<= T V))
                  (= R T)
                  (not (<= N (+ 240 R)))
                  (not (<= N T))
                  (= M N)
                  (not (<= L (+ 240 M)))
                  (not (<= L N))
                  (= K L)
                  (not (<= J (+ 40 K)))
                  (not (<= J L))
                  (= I J)
                  (not (<= H (+ 332 I)))
                  (not (<= H J))
                  (= G H)
                  (not (<= F (+ 4 G)))
                  (not (<= F H))
                  (= E F)
                  (not (<= D (+ 40 E)))
                  (not (<= D F)))))
  (let ((a!5 (not (or (not O)
                      (not (= R2 Q2))
                      (not a!1)
                      (not a!2)
                      (not a!3)
                      (not a!4)
                      (not (= C D))))))
    (=> a!5 (Proc21 Q2 B A O C))))))
(assert (forall ((A Int)
         (B Int)
         (C Int)
         (D Int)
         (E Int)
         (F Int)
         (G Int)
         (H Int)
         (I Int)
         (J Int)
         (K Int)
         (O Bool)
         (P Bool)
         (Q Bool))
  (let ((a!1 (or (not Q) (not (and (Proc23 K J I true H G F P E) (not P))))))
    (=> (not a!1) (Proc42 K J I Q D O C B A)))))
(assert (let ((a!1 (exists ((V0 Int)
                    (V1 Int)
                    (V2 Int)
                    (V3 Bool)
                    (V4 Int)
                    (V5 Bool)
                    (V6 Int)
                    (V7 Int)
                    (V8 Int))
             (not (=> (and (Proc42 V0 V1 V2 V3 V4 V5 V6 V7 V8) (not false))
                      false)))))
  (not a!1)))

(check-sat)
